unsat
(define-fun inv ((s Int) (l Int) (n Int) (x Int)) Bool (= s x))
0.06user 0.00system 0:00.07elapsed 100%CPU (0avgtext+0avgdata 26572maxresident)k
0inputs+8outputs (0major+1351minor)pagefaults 0swaps
